
List of user-set options:

                                    Name   Value                used
                         derivative_test = first-order           yes
                        file_print_level = 5                     yes
                   hessian_approximation = limited-memory        yes
                                  hsllib = /home/ggs24/packages/ThirdParty-HSL/.libs/libcoinhsl.so  yes
                           linear_solver = ma97                  yes
                                max_iter = 1000                  yes
                             output_file = IPOPT.out             yes
                             print_level = 0                     yes
                      print_user_options = yes                   yes
                                      sb = yes                   yes
This is Ipopt version 3.14.7, running with linear solver ma97.

Starting derivative checker for first derivatives.

* grad_f[          3] = -1.1621814621776139e-04    ~ -1.1589095505794124e-04  [ 2.823e-03]

Derivative checker detected 1 error(s).

Number of nonzeros in equality constraint Jacobian...:        0
Number of nonzeros in inequality constraint Jacobian.:        6
Number of nonzeros in Lagrangian Hessian.............:        0

Total number of variables............................:        6
                     variables with only lower bounds:        0
                variables with lower and upper bounds:        6
                     variables with only upper bounds:        0
Total number of equality constraints.................:        0
Total number of inequality constraints...............:        1
        inequality constraints with only lower bounds:        0
   inequality constraints with lower and upper bounds:        0
        inequality constraints with only upper bounds:        0

iter    objective    inf_pr   inf_du lg(mu)  ||d||  lg(rg) alpha_du alpha_pr  ls
   0  9.4139126e+00 0.00e+00 4.35e+00   0.0 0.00e+00    -  0.00e+00 0.00e+00   0
   1  3.4616583e-01 0.00e+00 1.34e+00  -5.6 2.42e+00    -  5.03e-01 1.00e+00f  1
   2  2.4573463e-01 0.00e+00 2.85e-01  -0.8 1.69e-01    -  1.00e+00 1.00e+00f  1
   3  2.2827399e-01 0.00e+00 7.75e-01  -1.9 1.13e+00    -  7.57e-01 1.25e-01f  4
   4  1.8052402e-01 0.00e+00 3.11e-01  -2.6 9.34e-02    -  9.99e-01 1.00e+00f  1
   5  1.4605179e-01 0.00e+00 2.50e-01  -3.9 1.22e-01    -  1.00e+00 1.00e+00f  1
   6  5.2742939e-02 0.00e+00 4.84e-01  -3.6 6.79e+00    -  1.00e+00 1.79e-01f  2
   7  2.1424305e-02 0.00e+00 1.53e-01  -3.6 5.24e-01    -  1.00e+00 1.00e+00f  1
   8  8.7691698e-04 0.00e+00 5.01e-02  -4.7 2.13e-01    -  1.00e+00 1.00e+00f  1
   9  3.6434054e-04 0.00e+00 1.47e-01  -6.0 1.69e-01    -  1.00e+00 1.00e+00f  1
iter    objective    inf_pr   inf_du lg(mu)  ||d||  lg(rg) alpha_du alpha_pr  ls
  10  0.0000000e+00 0.00e+00 4.83e-07  -7.4 8.04e-02    -  1.00e+00 2.50e-01f  3
  11  0.0000000e+00 0.00e+00 5.54e-11 -11.0 5.64e-11    -  1.00e+00 1.00e+00f  1

Number of Iterations....: 11

                                   (scaled)                 (unscaled)
Objective...............:   0.0000000000000000e+00    0.0000000000000000e+00
Dual infeasibility......:   5.5378306748228095e-11    5.5378306748228095e-11
Constraint violation....:   0.0000000000000000e+00    0.0000000000000000e+00
Variable bound violation:   0.0000000000000000e+00    0.0000000000000000e+00
Complementarity.........:   1.0000000367794235e-11    1.0000000367794235e-11
Overall NLP error.......:   5.5378306748228095e-11    5.5378306748228095e-11


Number of objective function evaluations             = 30
Number of objective gradient evaluations             = 12
Number of equality constraint evaluations            = 0
Number of inequality constraint evaluations          = 30
Number of equality constraint Jacobian evaluations   = 0
Number of inequality constraint Jacobian evaluations = 12
Number of Lagrangian Hessian evaluations             = 0
Total seconds in IPOPT                               = 0.031

EXIT: Optimal Solution Found.
